\ Model birth-death-regulation-capture-efficiency
\ LP format - for model browsing. Use MPS format to capture full model detail.
Minimize
  k_reg
Subject To
 R0: k_deg_2 = 1
 B_lb_0,_0: p[0,0] + 0.7 p[0,1] + 0.49 p[0,2] + 0.343 p[0,3]
   + 0.2401 p[0,4] + 0.16807 p[0,5] + 0.7 p[1,0] + 0.49 p[1,1]
   + 0.343 p[1,2] + 0.2401 p[1,3] + 0.16807 p[1,4] + 0.117649 p[1,5]
   + 0.49 p[2,0] + 0.343 p[2,1] + 0.2401 p[2,2] + 0.16807 p[2,3]
   + 0.117649 p[2,4] + 0.0823543 p[2,5] + 0.343 p[3,0] + 0.2401 p[3,1]
   + 0.16807 p[3,2] + 0.117649 p[3,3] + 0.0823543 p[3,4]
   + 0.0576480100000003 p[3,5] + 0.2401 p[4,0] + 0.16807 p[4,1]
   + 0.117649 p[4,2] + 0.0823543 p[4,3] + 0.0576480100000003 p[4,4]
   + 0.0403536069999949 p[4,5] + 0.16807 p[5,0] + 0.117649 p[5,1]
   + 0.0823543 p[5,2] + 0.0576480100000003 p[5,3]
   + 0.0403536069999949 p[5,4] + 0.0282475248999983 p[5,5]
   + 0.117649 p[6,0] + 0.0823543 p[6,1] + 0.0576480100000003 p[6,2]
   + 0.0403536069999949 p[6,3] + 0.0282475248999983 p[6,4]
   + 0.0197732674299982 p[6,5] + 0.0823543 p[7,0]
   + 0.0576480100000003 p[7,1] + 0.0403536069999949 p[7,2]
   + 0.0282475248999983 p[7,3] + 0.0197732674299982 p[7,4]
   + 0.0138412872009987 p[7,5] + 0.0576480100000003 p[8,0]
   + 0.0403536069999949 p[8,1] + 0.0282475248999983 p[8,2]
   + 0.0197732674299982 p[8,3] + 0.0138412872009987 p[8,4]
   + 0.00968890104069917 p[8,5] + 0.0403536069999949 p[9,0]
   + 0.0282475248999983 p[9,1] + 0.0197732674299982 p[9,2]
   + 0.0138412872009987 p[9,3] + 0.00968890104069917 p[9,4]
   + 0.00678223072848994 p[9,5] >= 0.7256666666666667
 B_ub_0,_0: p[0,0] + 0.7 p[0,1] + 0.49 p[0,2] + 0.343 p[0,3]
   + 0.2401 p[0,4] + 0.16807 p[0,5] + 0.7 p[1,0] + 0.49 p[1,1]
   + 0.343 p[1,2] + 0.2401 p[1,3] + 0.16807 p[1,4] + 0.117649 p[1,5]
   + 0.49 p[2,0] + 0.343 p[2,1] + 0.2401 p[2,2] + 0.16807 p[2,3]
   + 0.117649 p[2,4] + 0.0823543 p[2,5] + 0.343 p[3,0] + 0.2401 p[3,1]
   + 0.16807 p[3,2] + 0.117649 p[3,3] + 0.0823543 p[3,4]
   + 0.0576480100000003 p[3,5] + 0.2401 p[4,0] + 0.16807 p[4,1]
   + 0.117649 p[4,2] + 0.0823543 p[4,3] + 0.0576480100000003 p[4,4]
   + 0.0403536069999949 p[4,5] + 0.16807 p[5,0] + 0.117649 p[5,1]
   + 0.0823543 p[5,2] + 0.0576480100000003 p[5,3]
   + 0.0403536069999949 p[5,4] + 0.0282475248999983 p[5,5]
   + 0.117649 p[6,0] + 0.0823543 p[6,1] + 0.0576480100000003 p[6,2]
   + 0.0403536069999949 p[6,3] + 0.0282475248999983 p[6,4]
   + 0.0197732674299982 p[6,5] + 0.0823543 p[7,0]
   + 0.0576480100000003 p[7,1] + 0.0403536069999949 p[7,2]
   + 0.0282475248999983 p[7,3] + 0.0197732674299982 p[7,4]
   + 0.0138412872009987 p[7,5] + 0.0576480100000003 p[8,0]
   + 0.0403536069999949 p[8,1] + 0.0282475248999983 p[8,2]
   + 0.0197732674299982 p[8,3] + 0.0138412872009987 p[8,4]
   + 0.00968890104069917 p[8,5] + 0.0403536069999949 p[9,0]
   + 0.0282475248999983 p[9,1] + 0.0197732674299982 p[9,2]
   + 0.0138412872009987 p[9,3] + 0.00968890104069917 p[9,4]
   + 0.00678223072848994 p[9,5] <= 0.7554
 B_lb_0,_1: 0.3 p[0,1] + 0.42 p[0,2] + 0.441 p[0,3] + 0.4116 p[0,4]
   + 0.36015 p[0,5] + 0.21 p[1,1] + 0.294 p[1,2] + 0.3087 p[1,3]
   + 0.28812 p[1,4] + 0.252105 p[1,5] + 0.147 p[2,1] + 0.2058 p[2,2]
   + 0.21609 p[2,3] + 0.201684 p[2,4] + 0.1764735000000034 p[2,5]
   + 0.1029 p[3,1] + 0.14406 p[3,2] + 0.151263 p[3,3]
   + 0.1411788000000027 p[3,4] + 0.1235314499999911 p[3,5] + 0.07203 p[4,1]
   + 0.100842 p[4,2] + 0.105884100000002 p[4,3] + 0.0988251599999928 p[4,4]
   + 0.0864720149999949 p[4,5] + 0.050421 p[5,1] + 0.0705894 p[5,2]
   + 0.0741188699999946 p[5,3] + 0.0691776119999959 p[5,4]
   + 0.0605304104999948 p[5,5] + 0.0352947 p[6,1]
   + 0.0494125799999964 p[6,2] + 0.0518832089999969 p[6,3]
   + 0.0484243283999958 p[6,4] + 0.0423712873499965 p[6,5]
   + 0.0247062899999982 p[7,1] + 0.0345888059999979 p[7,2]
   + 0.0363182462999969 p[7,3] + 0.0338970298799972 p[7,4]
   + 0.0296599011450018 p[7,5] + 0.017294402999999 p[8,1]
   + 0.0242121641999979 p[8,2] + 0.0254227724099979 p[8,3]
   + 0.0237279209160014 p[8,4] + 0.0207619308014987 p[8,5]
   + 0.012106082099999 p[9,1] + 0.0169485149399986 p[9,2]
   + 0.0177959406870011 p[9,3] + 0.016609544641199 p[9,4]
   + 0.0145333515610506 p[9,5] >= 0.1016666666666667
 B_ub_0,_1: 0.3 p[0,1] + 0.42 p[0,2] + 0.441 p[0,3] + 0.4116 p[0,4]
   + 0.36015 p[0,5] + 0.21 p[1,1] + 0.294 p[1,2] + 0.3087 p[1,3]
   + 0.28812 p[1,4] + 0.252105 p[1,5] + 0.147 p[2,1] + 0.2058 p[2,2]
   + 0.21609 p[2,3] + 0.201684 p[2,4] + 0.1764735000000034 p[2,5]
   + 0.1029 p[3,1] + 0.14406 p[3,2] + 0.151263 p[3,3]
   + 0.1411788000000027 p[3,4] + 0.1235314499999911 p[3,5] + 0.07203 p[4,1]
   + 0.100842 p[4,2] + 0.105884100000002 p[4,3] + 0.0988251599999928 p[4,4]
   + 0.0864720149999949 p[4,5] + 0.050421 p[5,1] + 0.0705894 p[5,2]
   + 0.0741188699999946 p[5,3] + 0.0691776119999959 p[5,4]
   + 0.0605304104999948 p[5,5] + 0.0352947 p[6,1]
   + 0.0494125799999964 p[6,2] + 0.0518832089999969 p[6,3]
   + 0.0484243283999958 p[6,4] + 0.0423712873499965 p[6,5]
   + 0.0247062899999982 p[7,1] + 0.0345888059999979 p[7,2]
   + 0.0363182462999969 p[7,3] + 0.0338970298799972 p[7,4]
   + 0.0296599011450018 p[7,5] + 0.017294402999999 p[8,1]
   + 0.0242121641999979 p[8,2] + 0.0254227724099979 p[8,3]
   + 0.0237279209160014 p[8,4] + 0.0207619308014987 p[8,5]
   + 0.012106082099999 p[9,1] + 0.0169485149399986 p[9,2]
   + 0.0177959406870011 p[9,3] + 0.016609544641199 p[9,4]
   + 0.0145333515610506 p[9,5] <= 0.1234
 B_lb_1,_0: 0.3 p[1,0] + 0.21 p[1,1] + 0.147 p[1,2] + 0.1029 p[1,3]
   + 0.07203 p[1,4] + 0.050421 p[1,5] + 0.42 p[2,0] + 0.294 p[2,1]
   + 0.2058 p[2,2] + 0.14406 p[2,3] + 0.100842 p[2,4] + 0.0705894 p[2,5]
   + 0.441 p[3,0] + 0.3087 p[3,1] + 0.21609 p[3,2] + 0.151263 p[3,3]
   + 0.105884100000002 p[3,4] + 0.0741188699999946 p[3,5] + 0.4116 p[4,0]
   + 0.28812 p[4,1] + 0.201684 p[4,2] + 0.1411788000000027 p[4,3]
   + 0.0988251599999928 p[4,4] + 0.0691776119999959 p[4,5] + 0.36015 p[5,0]
   + 0.252105 p[5,1] + 0.1764735000000034 p[5,2]
   + 0.1235314499999911 p[5,3] + 0.0864720149999949 p[5,4]
   + 0.0605304104999948 p[5,5] + 0.302526 p[6,0]
   + 0.2117682000000041 p[6,1] + 0.1482377399999893 p[6,2]
   + 0.1037664179999938 p[6,3] + 0.0726364925999938 p[6,4]
   + 0.0508455448199957 p[6,5] + 0.2470629000000047 p[7,0]
   + 0.1729440299999875 p[7,1] + 0.1210608209999928 p[7,2]
   + 0.0847425746999927 p[7,3] + 0.059319802289995 p[7,4]
   + 0.0415238616030025 p[7,5] + 0.1976503199999857 p[8,0]
   + 0.1383552239999918 p[8,1] + 0.0968486567999917 p[8,2]
   + 0.0677940597599943 p[8,3] + 0.0474558418320029 p[8,4]
   + 0.0332190892823979 p[8,5] + 0.1556496269999907 p[9,0]
   + 0.1089547388999907 p[9,1] + 0.0762683172299936 p[9,2]
   + 0.0533878220610032 p[9,3] + 0.0373714754426977 p[9,4]
   + 0.026160032809891 p[9,5] >= 0.1046666666666667
 B_ub_1,_0: 0.3 p[1,0] + 0.21 p[1,1] + 0.147 p[1,2] + 0.1029 p[1,3]
   + 0.07203 p[1,4] + 0.050421 p[1,5] + 0.42 p[2,0] + 0.294 p[2,1]
   + 0.2058 p[2,2] + 0.14406 p[2,3] + 0.100842 p[2,4] + 0.0705894 p[2,5]
   + 0.441 p[3,0] + 0.3087 p[3,1] + 0.21609 p[3,2] + 0.151263 p[3,3]
   + 0.105884100000002 p[3,4] + 0.0741188699999946 p[3,5] + 0.4116 p[4,0]
   + 0.28812 p[4,1] + 0.201684 p[4,2] + 0.1411788000000027 p[4,3]
   + 0.0988251599999928 p[4,4] + 0.0691776119999959 p[4,5] + 0.36015 p[5,0]
   + 0.252105 p[5,1] + 0.1764735000000034 p[5,2]
   + 0.1235314499999911 p[5,3] + 0.0864720149999949 p[5,4]
   + 0.0605304104999948 p[5,5] + 0.302526 p[6,0]
   + 0.2117682000000041 p[6,1] + 0.1482377399999893 p[6,2]
   + 0.1037664179999938 p[6,3] + 0.0726364925999938 p[6,4]
   + 0.0508455448199957 p[6,5] + 0.2470629000000047 p[7,0]
   + 0.1729440299999875 p[7,1] + 0.1210608209999928 p[7,2]
   + 0.0847425746999927 p[7,3] + 0.059319802289995 p[7,4]
   + 0.0415238616030025 p[7,5] + 0.1976503199999857 p[8,0]
   + 0.1383552239999918 p[8,1] + 0.0968486567999917 p[8,2]
   + 0.0677940597599943 p[8,3] + 0.0474558418320029 p[8,4]
   + 0.0332190892823979 p[8,5] + 0.1556496269999907 p[9,0]
   + 0.1089547388999907 p[9,1] + 0.0762683172299936 p[9,2]
   + 0.0533878220610032 p[9,3] + 0.0373714754426977 p[9,4]
   + 0.026160032809891 p[9,5] <= 0.1266
 B_lb_1,_1: 0.09 p[1,1] + 0.126 p[1,2] + 0.1323 p[1,3] + 0.12348 p[1,4]
   + 0.108045 p[1,5] + 0.126 p[2,1] + 0.1764 p[2,2] + 0.18522 p[2,3]
   + 0.172872 p[2,4] + 0.151263 p[2,5] + 0.1323 p[3,1] + 0.18522 p[3,2]
   + 0.194481 p[3,3] + 0.1815156000000005 p[3,4] + 0.158826149999985 p[3,5]
   + 0.12348 p[4,1] + 0.172872 p[4,2] + 0.1815156000000005 p[4,3]
   + 0.169414559999984 p[4,4] + 0.1482377400000087 p[4,5] + 0.108045 p[5,1]
   + 0.151263 p[5,2] + 0.158826149999985 p[5,3] + 0.1482377400000087 p[5,4]
   + 0.1297080225000066 p[5,5] + 0.0907578 p[6,1]
   + 0.127060919999988 p[6,2] + 0.1334139660000078 p[6,3]
   + 0.1245197016000063 p[6,4] + 0.1089547388999982 p[6,5]
   + 0.074118869999993 p[7,1] + 0.1037664180000061 p[7,2]
   + 0.1089547389000056 p[7,3] + 0.1016910896399983 p[7,4]
   + 0.0889797034349993 p[7,5] + 0.0592950960000035 p[8,1]
   + 0.0830131344000042 p[8,2] + 0.0871637911199985 p[8,3]
   + 0.0813528717119994 p[8,4] + 0.071183762748003 p[8,5]
   + 0.0466948881000024 p[9,1] + 0.0653728433399989 p[9,2]
   + 0.0686414855069995 p[9,3] + 0.0640653864732027 p[9,4]
   + 0.0560572131640529 p[9,5] >= -7.333333333333341e-04
 B_ub_1,_1: 0.09 p[1,1] + 0.126 p[1,2] + 0.1323 p[1,3] + 0.12348 p[1,4]
   + 0.108045 p[1,5] + 0.126 p[2,1] + 0.1764 p[2,2] + 0.18522 p[2,3]
   + 0.172872 p[2,4] + 0.151263 p[2,5] + 0.1323 p[3,1] + 0.18522 p[3,2]
   + 0.194481 p[3,3] + 0.1815156000000005 p[3,4] + 0.158826149999985 p[3,5]
   + 0.12348 p[4,1] + 0.172872 p[4,2] + 0.1815156000000005 p[4,3]
   + 0.169414559999984 p[4,4] + 0.1482377400000087 p[4,5] + 0.108045 p[5,1]
   + 0.151263 p[5,2] + 0.158826149999985 p[5,3] + 0.1482377400000087 p[5,4]
   + 0.1297080225000066 p[5,5] + 0.0907578 p[6,1]
   + 0.127060919999988 p[6,2] + 0.1334139660000078 p[6,3]
   + 0.1245197016000063 p[6,4] + 0.1089547388999982 p[6,5]
   + 0.074118869999993 p[7,1] + 0.1037664180000061 p[7,2]
   + 0.1089547389000056 p[7,3] + 0.1016910896399983 p[7,4]
   + 0.0889797034349993 p[7,5] + 0.0592950960000035 p[8,1]
   + 0.0830131344000042 p[8,2] + 0.0871637911199985 p[8,3]
   + 0.0813528717119994 p[8,4] + 0.071183762748003 p[8,5]
   + 0.0466948881000024 p[9,1] + 0.0653728433399989 p[9,2]
   + 0.0686414855069995 p[9,3] + 0.0640653864732027 p[9,4]
   + 0.0560572131640529 p[9,5] <= 0.0078
 B_lb_2,_0: 0.09 p[2,0] + 0.063 p[2,1] + 0.0441 p[2,2] + 0.03087 p[2,3]
   + 0.021609 p[2,4] + 0.0151263 p[2,5] + 0.189 p[3,0] + 0.1323 p[3,1]
   + 0.09261 p[3,2] + 0.064827 p[3,3] + 0.0453789 p[3,4]
   + 0.031765229999997 p[3,5] + 0.2646 p[4,0] + 0.18522 p[4,1]
   + 0.129654 p[4,2] + 0.0907578 p[4,3] + 0.063530459999994 p[4,4]
   + 0.0444713220000026 p[4,5] + 0.3087 p[5,0] + 0.21609 p[5,1]
   + 0.151263 p[5,2] + 0.10588409999999 p[5,3] + 0.0741188700000044 p[5,4]
   + 0.0518832090000027 p[5,5] + 0.324135 p[6,0]
   + 0.2268945000000006 p[6,1] + 0.158826149999985 p[6,2]
   + 0.1111783050000066 p[6,3] + 0.077824813500004 p[6,4]
   + 0.0544773694499991 p[6,5] + 0.3176523000000008 p[7,0]
   + 0.222356609999979 p[7,1] + 0.1556496270000092 p[7,2]
   + 0.1089547389000056 p[7,3] + 0.0762683172299987 p[7,4]
   + 0.0533878220609996 p[7,5] + 0.296475479999972 p[8,0]
   + 0.2075328360000122 p[8,1] + 0.1452729852000074 p[8,2]
   + 0.1016910896399983 p[8,3] + 0.0711837627479995 p[8,4]
   + 0.0498286339236021 p[8,5] + 0.2668279320000157 p[9,0]
   + 0.1867795524000095 p[9,1] + 0.1307456866799978 p[9,2]
   + 0.0915219806759993 p[9,3] + 0.0640653864732027 p[9,4]
   + 0.0448457705312423 p[9,5] >= 0.00186666666666667
 B_ub_2,_0: 0.09 p[2,0] + 0.063 p[2,1] + 0.0441 p[2,2] + 0.03087 p[2,3]
   + 0.021609 p[2,4] + 0.0151263 p[2,5] + 0.189 p[3,0] + 0.1323 p[3,1]
   + 0.09261 p[3,2] + 0.064827 p[3,3] + 0.0453789 p[3,4]
   + 0.031765229999997 p[3,5] + 0.2646 p[4,0] + 0.18522 p[4,1]
   + 0.129654 p[4,2] + 0.0907578 p[4,3] + 0.063530459999994 p[4,4]
   + 0.0444713220000026 p[4,5] + 0.3087 p[5,0] + 0.21609 p[5,1]
   + 0.151263 p[5,2] + 0.10588409999999 p[5,3] + 0.0741188700000044 p[5,4]
   + 0.0518832090000027 p[5,5] + 0.324135 p[6,0]
   + 0.2268945000000006 p[6,1] + 0.158826149999985 p[6,2]
   + 0.1111783050000066 p[6,3] + 0.077824813500004 p[6,4]
   + 0.0544773694499991 p[6,5] + 0.3176523000000008 p[7,0]
   + 0.222356609999979 p[7,1] + 0.1556496270000092 p[7,2]
   + 0.1089547389000056 p[7,3] + 0.0762683172299987 p[7,4]
   + 0.0533878220609996 p[7,5] + 0.296475479999972 p[8,0]
   + 0.2075328360000122 p[8,1] + 0.1452729852000074 p[8,2]
   + 0.1016910896399983 p[8,3] + 0.0711837627479995 p[8,4]
   + 0.0498286339236021 p[8,5] + 0.2668279320000157 p[9,0]
   + 0.1867795524000095 p[9,1] + 0.1307456866799978 p[9,2]
   + 0.0915219806759993 p[9,3] + 0.0640653864732027 p[9,4]
   + 0.0448457705312423 p[9,5] <= 0.0112
 B_lb_2,_1: 0.027 p[2,1] + 0.0378 p[2,2] + 0.03969 p[2,3] + 0.037044 p[2,4]
   + 0.0324135 p[2,5] + 0.0567 p[3,1] + 0.07938 p[3,2] + 0.083349 p[3,3]
   + 0.0777924 p[3,4] + 0.0680683500000069 p[3,5] + 0.07938 p[4,1]
   + 0.111132 p[4,2] + 0.1166885999999923 p[4,3]
   + 0.1089093600000111 p[4,4] + 0.0952956900000045 p[4,5] + 0.09261 p[5,1]
   + 0.129654 p[5,2] + 0.1361367000000138 p[5,3] + 0.127060920000006 p[5,4]
   + 0.1111783049999891 p[5,5] + 0.0972405 p[6,1]
   + 0.1361367000000138 p[6,2] + 0.1429435350000067 p[6,3]
   + 0.1334139659999869 p[6,4] + 0.1167372202500062 p[6,5]
   + 0.0952956900000097 p[7,1] + 0.1334139660000063 p[7,2]
   + 0.1400846642999862 p[7,3] + 0.1307456866800069 p[7,4]
   + 0.1144024758449999 p[7,5] + 0.0889426440000042 p[8,1]
   + 0.1245197015999878 p[8,2] + 0.1307456866800069 p[8,3]
   + 0.1220293075679999 p[8,4] + 0.1067756441219991 p[8,5]
   + 0.0800483795999921 p[9,1] + 0.112067731440006 p[9,2]
   + 0.1176711180119999 p[9,3] + 0.1098263768111991 p[9,4]
   + 0.0960980797097904 p[9,5] >= -0.00433333333333333
 B_ub_2,_1: 0.027 p[2,1] + 0.0378 p[2,2] + 0.03969 p[2,3] + 0.037044 p[2,4]
   + 0.0324135 p[2,5] + 0.0567 p[3,1] + 0.07938 p[3,2] + 0.083349 p[3,3]
   + 0.0777924 p[3,4] + 0.0680683500000069 p[3,5] + 0.07938 p[4,1]
   + 0.111132 p[4,2] + 0.1166885999999923 p[4,3]
   + 0.1089093600000111 p[4,4] + 0.0952956900000045 p[4,5] + 0.09261 p[5,1]
   + 0.129654 p[5,2] + 0.1361367000000138 p[5,3] + 0.127060920000006 p[5,4]
   + 0.1111783049999891 p[5,5] + 0.0972405 p[6,1]
   + 0.1361367000000138 p[6,2] + 0.1429435350000067 p[6,3]
   + 0.1334139659999869 p[6,4] + 0.1167372202500062 p[6,5]
   + 0.0952956900000097 p[7,1] + 0.1334139660000063 p[7,2]
   + 0.1400846642999862 p[7,3] + 0.1307456866800069 p[7,4]
   + 0.1144024758449999 p[7,5] + 0.0889426440000042 p[8,1]
   + 0.1245197015999878 p[8,2] + 0.1307456866800069 p[8,3]
   + 0.1220293075679999 p[8,4] + 0.1067756441219991 p[8,5]
   + 0.0800483795999921 p[9,1] + 0.112067731440006 p[9,2]
   + 0.1176711180119999 p[9,3] + 0.1098263768111991 p[9,4]
   + 0.0960980797097904 p[9,5] <= 1
 B_marginal_lb_0: p1[0] + 0.7 p1[1] + 0.49 p1[2] + 0.343 p1[3]
   + 0.2401 p1[4] + 0.16807 p1[5] + 0.117649 p1[6] + 0.0823543 p1[7]
   + 0.0576480100000003 p1[8] + 0.0403536069999949 p1[9] >= 0.8076
 B_marginal_ub_0: p1[0] + 0.7 p1[1] + 0.49 p1[2] + 0.343 p1[3]
   + 0.2401 p1[4] + 0.16807 p1[5] + 0.117649 p1[6] + 0.0823543 p1[7]
   + 0.0576480100000003 p1[8] + 0.0403536069999949 p1[9] <= 0.8772
 B_marginal_lb_1: 0.3 p1[1] + 0.42 p1[2] + 0.441 p1[3] + 0.4116 p1[4]
   + 0.36015 p1[5] + 0.302526 p1[6] + 0.2470629000000047 p1[7]
   + 0.1976503199999857 p1[8] + 0.1556496269999907 p1[9] >= 0.0636
 B_marginal_ub_1: 0.3 p1[1] + 0.42 p1[2] + 0.441 p1[3] + 0.4116 p1[4]
   + 0.36015 p1[5] + 0.302526 p1[6] + 0.2470629000000047 p1[7]
   + 0.1976503199999857 p1[8] + 0.1556496269999907 p1[9] <= 0.1326
 B_marginal_lb_2: 0.09 p1[2] + 0.189 p1[3] + 0.2646 p1[4] + 0.3087 p1[5]
   + 0.324135 p1[6] + 0.3176523000000008 p1[7] + 0.296475479999972 p1[8]
   + 0.2668279320000157 p1[9] >= -0.0444
 B_marginal_ub_2: 0.09 p1[2] + 0.189 p1[3] + 0.2646 p1[4] + 0.3087 p1[5]
   + 0.324135 p1[6] + 0.3176523000000008 p1[7] + 0.296475479999972 p1[8]
   + 0.2668279320000157 p1[9] <= 0.0112
 B_marginal_lb_0: p2[0] + 0.7 p2[1] + 0.49 p2[2] + 0.343 p2[3]
   + 0.2401 p2[4] + 0.16807 p2[5] >= 0.7755777777777778
 B_marginal_ub_0: p2[0] + 0.7 p2[1] + 0.49 p2[2] + 0.343 p2[3]
   + 0.2401 p2[4] + 0.16807 p2[5] <= 0.878605
 B_marginal_lb_1: 0.3 p2[1] + 0.42 p2[2] + 0.441 p2[3] + 0.4116 p2[4]
   + 0.36015 p2[5] >= 0.0269777777777778
 B_marginal_ub_1: 0.3 p2[1] + 0.42 p2[2] + 0.441 p2[3] + 0.4116 p2[4]
   + 0.36015 p2[5] <= 0.1292
 frechet_lb_0,_0: - p[0,0] + p1[0] + p2[0] <= 1
 frechet_ub_x1_0: p[0,0] - p1[0] <= 0
 frechet_ub_x2_0: p[0,0] - p2[0] <= 0
 frechet_lb_0,_1: - p[0,1] + p1[0] + p2[1] <= 1
 frechet_ub_x1_0: p[0,1] - p1[0] <= 0
 frechet_ub_x2_1: p[0,1] - p2[1] <= 0
 frechet_lb_0,_2: - p[0,2] + p1[0] + p2[2] <= 1
 frechet_ub_x1_0: p[0,2] - p1[0] <= 0
 frechet_ub_x2_2: p[0,2] - p2[2] <= 0
 frechet_lb_0,_3: - p[0,3] + p1[0] + p2[3] <= 1
 frechet_ub_x1_0: p[0,3] - p1[0] <= 0
 frechet_ub_x2_3: p[0,3] - p2[3] <= 0
 frechet_lb_0,_4: - p[0,4] + p1[0] + p2[4] <= 1
 frechet_ub_x1_0: p[0,4] - p1[0] <= 0
 frechet_ub_x2_4: p[0,4] - p2[4] <= 0
 frechet_lb_0,_5: - p[0,5] + p1[0] + p2[5] <= 1
 frechet_ub_x1_0: p[0,5] - p1[0] <= 0
 frechet_ub_x2_5: p[0,5] - p2[5] <= 0
 frechet_lb_1,_0: - p[1,0] + p1[1] + p2[0] <= 1
 frechet_ub_x1_1: p[1,0] - p1[1] <= 0
 frechet_ub_x2_0: p[1,0] - p2[0] <= 0
 frechet_lb_1,_1: - p[1,1] + p1[1] + p2[1] <= 1
 frechet_ub_x1_1: p[1,1] - p1[1] <= 0
 frechet_ub_x2_1: p[1,1] - p2[1] <= 0
 frechet_lb_1,_2: - p[1,2] + p1[1] + p2[2] <= 1
 frechet_ub_x1_1: p[1,2] - p1[1] <= 0
 frechet_ub_x2_2: p[1,2] - p2[2] <= 0
 frechet_lb_1,_3: - p[1,3] + p1[1] + p2[3] <= 1
 frechet_ub_x1_1: p[1,3] - p1[1] <= 0
 frechet_ub_x2_3: p[1,3] - p2[3] <= 0
 frechet_lb_1,_4: - p[1,4] + p1[1] + p2[4] <= 1
 frechet_ub_x1_1: p[1,4] - p1[1] <= 0
 frechet_ub_x2_4: p[1,4] - p2[4] <= 0
 frechet_lb_1,_5: - p[1,5] + p1[1] + p2[5] <= 1
 frechet_ub_x1_1: p[1,5] - p1[1] <= 0
 frechet_ub_x2_5: p[1,5] - p2[5] <= 0
 frechet_lb_2,_0: - p[2,0] + p1[2] + p2[0] <= 1
 frechet_ub_x1_2: p[2,0] - p1[2] <= 0
 frechet_ub_x2_0: p[2,0] - p2[0] <= 0
 frechet_lb_2,_1: - p[2,1] + p1[2] + p2[1] <= 1
 frechet_ub_x1_2: p[2,1] - p1[2] <= 0
 frechet_ub_x2_1: p[2,1] - p2[1] <= 0
 frechet_lb_2,_2: - p[2,2] + p1[2] + p2[2] <= 1
 frechet_ub_x1_2: p[2,2] - p1[2] <= 0
 frechet_ub_x2_2: p[2,2] - p2[2] <= 0
 frechet_lb_2,_3: - p[2,3] + p1[2] + p2[3] <= 1
 frechet_ub_x1_2: p[2,3] - p1[2] <= 0
 frechet_ub_x2_3: p[2,3] - p2[3] <= 0
 frechet_lb_2,_4: - p[2,4] + p1[2] + p2[4] <= 1
 frechet_ub_x1_2: p[2,4] - p1[2] <= 0
 frechet_ub_x2_4: p[2,4] - p2[4] <= 0
 frechet_lb_2,_5: - p[2,5] + p1[2] + p2[5] <= 1
 frechet_ub_x1_2: p[2,5] - p1[2] <= 0
 frechet_ub_x2_5: p[2,5] - p2[5] <= 0
 frechet_lb_3,_0: - p[3,0] + p1[3] + p2[0] <= 1
 frechet_ub_x1_3: p[3,0] - p1[3] <= 0
 frechet_ub_x2_0: p[3,0] - p2[0] <= 0
 frechet_lb_3,_1: - p[3,1] + p1[3] + p2[1] <= 1
 frechet_ub_x1_3: p[3,1] - p1[3] <= 0
 frechet_ub_x2_1: p[3,1] - p2[1] <= 0
 frechet_lb_3,_2: - p[3,2] + p1[3] + p2[2] <= 1
 frechet_ub_x1_3: p[3,2] - p1[3] <= 0
 frechet_ub_x2_2: p[3,2] - p2[2] <= 0
 frechet_lb_3,_3: - p[3,3] + p1[3] + p2[3] <= 1
 frechet_ub_x1_3: p[3,3] - p1[3] <= 0
 frechet_ub_x2_3: p[3,3] - p2[3] <= 0
 frechet_lb_3,_4: - p[3,4] + p1[3] + p2[4] <= 1
 frechet_ub_x1_3: p[3,4] - p1[3] <= 0
 frechet_ub_x2_4: p[3,4] - p2[4] <= 0
 frechet_lb_3,_5: - p[3,5] + p1[3] + p2[5] <= 1
 frechet_ub_x1_3: p[3,5] - p1[3] <= 0
 frechet_ub_x2_5: p[3,5] - p2[5] <= 0
 frechet_lb_4,_0: - p[4,0] + p1[4] + p2[0] <= 1
 frechet_ub_x1_4: p[4,0] - p1[4] <= 0
 frechet_ub_x2_0: p[4,0] - p2[0] <= 0
 frechet_lb_4,_1: - p[4,1] + p1[4] + p2[1] <= 1
 frechet_ub_x1_4: p[4,1] - p1[4] <= 0
 frechet_ub_x2_1: p[4,1] - p2[1] <= 0
 frechet_lb_4,_2: - p[4,2] + p1[4] + p2[2] <= 1
 frechet_ub_x1_4: p[4,2] - p1[4] <= 0
 frechet_ub_x2_2: p[4,2] - p2[2] <= 0
 frechet_lb_4,_3: - p[4,3] + p1[4] + p2[3] <= 1
 frechet_ub_x1_4: p[4,3] - p1[4] <= 0
 frechet_ub_x2_3: p[4,3] - p2[3] <= 0
 frechet_lb_4,_4: - p[4,4] + p1[4] + p2[4] <= 1
 frechet_ub_x1_4: p[4,4] - p1[4] <= 0
 frechet_ub_x2_4: p[4,4] - p2[4] <= 0
 frechet_lb_4,_5: - p[4,5] + p1[4] + p2[5] <= 1
 frechet_ub_x1_4: p[4,5] - p1[4] <= 0
 frechet_ub_x2_5: p[4,5] - p2[5] <= 0
 frechet_lb_5,_0: - p[5,0] + p1[5] + p2[0] <= 1
 frechet_ub_x1_5: p[5,0] - p1[5] <= 0
 frechet_ub_x2_0: p[5,0] - p2[0] <= 0
 frechet_lb_5,_1: - p[5,1] + p1[5] + p2[1] <= 1
 frechet_ub_x1_5: p[5,1] - p1[5] <= 0
 frechet_ub_x2_1: p[5,1] - p2[1] <= 0
 frechet_lb_5,_2: - p[5,2] + p1[5] + p2[2] <= 1
 frechet_ub_x1_5: p[5,2] - p1[5] <= 0
 frechet_ub_x2_2: p[5,2] - p2[2] <= 0
 frechet_lb_5,_3: - p[5,3] + p1[5] + p2[3] <= 1
 frechet_ub_x1_5: p[5,3] - p1[5] <= 0
 frechet_ub_x2_3: p[5,3] - p2[3] <= 0
 frechet_lb_5,_4: - p[5,4] + p1[5] + p2[4] <= 1
 frechet_ub_x1_5: p[5,4] - p1[5] <= 0
 frechet_ub_x2_4: p[5,4] - p2[4] <= 0
 frechet_lb_5,_5: - p[5,5] + p1[5] + p2[5] <= 1
 frechet_ub_x1_5: p[5,5] - p1[5] <= 0
 frechet_ub_x2_5: p[5,5] - p2[5] <= 0
 frechet_lb_6,_0: - p[6,0] + p1[6] + p2[0] <= 1
 frechet_ub_x1_6: p[6,0] - p1[6] <= 0
 frechet_ub_x2_0: p[6,0] - p2[0] <= 0
 frechet_lb_6,_1: - p[6,1] + p1[6] + p2[1] <= 1
 frechet_ub_x1_6: p[6,1] - p1[6] <= 0
 frechet_ub_x2_1: p[6,1] - p2[1] <= 0
 frechet_lb_6,_2: - p[6,2] + p1[6] + p2[2] <= 1
 frechet_ub_x1_6: p[6,2] - p1[6] <= 0
 frechet_ub_x2_2: p[6,2] - p2[2] <= 0
 frechet_lb_6,_3: - p[6,3] + p1[6] + p2[3] <= 1
 frechet_ub_x1_6: p[6,3] - p1[6] <= 0
 frechet_ub_x2_3: p[6,3] - p2[3] <= 0
 frechet_lb_6,_4: - p[6,4] + p1[6] + p2[4] <= 1
 frechet_ub_x1_6: p[6,4] - p1[6] <= 0
 frechet_ub_x2_4: p[6,4] - p2[4] <= 0
 frechet_lb_6,_5: - p[6,5] + p1[6] + p2[5] <= 1
 frechet_ub_x1_6: p[6,5] - p1[6] <= 0
 frechet_ub_x2_5: p[6,5] - p2[5] <= 0
 frechet_lb_7,_0: - p[7,0] + p1[7] + p2[0] <= 1
 frechet_ub_x1_7: p[7,0] - p1[7] <= 0
 frechet_ub_x2_0: p[7,0] - p2[0] <= 0
 frechet_lb_7,_1: - p[7,1] + p1[7] + p2[1] <= 1
 frechet_ub_x1_7: p[7,1] - p1[7] <= 0
 frechet_ub_x2_1: p[7,1] - p2[1] <= 0
 frechet_lb_7,_2: - p[7,2] + p1[7] + p2[2] <= 1
 frechet_ub_x1_7: p[7,2] - p1[7] <= 0
 frechet_ub_x2_2: p[7,2] - p2[2] <= 0
 frechet_lb_7,_3: - p[7,3] + p1[7] + p2[3] <= 1
 frechet_ub_x1_7: p[7,3] - p1[7] <= 0
 frechet_ub_x2_3: p[7,3] - p2[3] <= 0
 frechet_lb_7,_4: - p[7,4] + p1[7] + p2[4] <= 1
 frechet_ub_x1_7: p[7,4] - p1[7] <= 0
 frechet_ub_x2_4: p[7,4] - p2[4] <= 0
 frechet_lb_7,_5: - p[7,5] + p1[7] + p2[5] <= 1
 frechet_ub_x1_7: p[7,5] - p1[7] <= 0
 frechet_ub_x2_5: p[7,5] - p2[5] <= 0
 frechet_lb_8,_0: - p[8,0] + p1[8] + p2[0] <= 1
 frechet_ub_x1_8: p[8,0] - p1[8] <= 0
 frechet_ub_x2_0: p[8,0] - p2[0] <= 0
 frechet_lb_8,_1: - p[8,1] + p1[8] + p2[1] <= 1
 frechet_ub_x1_8: p[8,1] - p1[8] <= 0
 frechet_ub_x2_1: p[8,1] - p2[1] <= 0
 frechet_lb_8,_2: - p[8,2] + p1[8] + p2[2] <= 1
 frechet_ub_x1_8: p[8,2] - p1[8] <= 0
 frechet_ub_x2_2: p[8,2] - p2[2] <= 0
 frechet_lb_8,_3: - p[8,3] + p1[8] + p2[3] <= 1
 frechet_ub_x1_8: p[8,3] - p1[8] <= 0
 frechet_ub_x2_3: p[8,3] - p2[3] <= 0
 frechet_lb_8,_4: - p[8,4] + p1[8] + p2[4] <= 1
 frechet_ub_x1_8: p[8,4] - p1[8] <= 0
 frechet_ub_x2_4: p[8,4] - p2[4] <= 0
 frechet_lb_8,_5: - p[8,5] + p1[8] + p2[5] <= 1
 frechet_ub_x1_8: p[8,5] - p1[8] <= 0
 frechet_ub_x2_5: p[8,5] - p2[5] <= 0
 frechet_lb_9,_0: - p[9,0] + p1[9] + p2[0] <= 1
 frechet_ub_x1_9: p[9,0] - p1[9] <= 0
 frechet_ub_x2_0: p[9,0] - p2[0] <= 0
 frechet_lb_9,_1: - p[9,1] + p1[9] + p2[1] <= 1
 frechet_ub_x1_9: p[9,1] - p1[9] <= 0
 frechet_ub_x2_1: p[9,1] - p2[1] <= 0
 frechet_lb_9,_2: - p[9,2] + p1[9] + p2[2] <= 1
 frechet_ub_x1_9: p[9,2] - p1[9] <= 0
 frechet_ub_x2_2: p[9,2] - p2[2] <= 0
 frechet_lb_9,_3: - p[9,3] + p1[9] + p2[3] <= 1
 frechet_ub_x1_9: p[9,3] - p1[9] <= 0
 frechet_ub_x2_3: p[9,3] - p2[3] <= 0
 frechet_lb_9,_4: - p[9,4] + p1[9] + p2[4] <= 1
 frechet_ub_x1_9: p[9,4] - p1[9] <= 0
 frechet_ub_x2_4: p[9,4] - p2[4] <= 0
 frechet_lb_9,_5: - p[9,5] + p1[9] + p2[5] <= 1
 frechet_ub_x1_9: p[9,5] - p1[9] <= 0
 frechet_ub_x2_5: p[9,5] - p2[5] <= 0
 Distribution: p[0,0] + p[0,1] + p[0,2] + p[0,3] + p[0,4] + p[0,5] + p[1,0]
   + p[1,1] + p[1,2] + p[1,3] + p[1,4] + p[1,5] + p[2,0] + p[2,1] + p[2,2]
   + p[2,3] + p[2,4] + p[2,5] + p[3,0] + p[3,1] + p[3,2] + p[3,3] + p[3,4]
   + p[3,5] + p[4,0] + p[4,1] + p[4,2] + p[4,3] + p[4,4] + p[4,5] + p[5,0]
   + p[5,1] + p[5,2] + p[5,3] + p[5,4] + p[5,5] + p[6,0] + p[6,1] + p[6,2]
   + p[6,3] + p[6,4] + p[6,5] + p[7,0] + p[7,1] + p[7,2] + p[7,3] + p[7,4]
   + p[7,5] + p[8,0] + p[8,1] + p[8,2] + p[8,3] + p[8,4] + p[8,5] + p[9,0]
   + p[9,1] + p[9,2] + p[9,3] + p[9,4] + p[9,5] <= 1
 Distribution_x1: p1[0] + p1[1] + p1[2] + p1[3] + p1[4] + p1[5] + p1[6]
   + p1[7] + p1[8] + p1[9] <= 1
 Distribution_x2: p2[0] + p2[1] + p2[2] + p2[3] + p2[4] + p2[5] <= 1
 Equation_0,_0: [ - p[0,0] * k_tx_1 - p[0,0] * k_tx_2 + p[0,1] * k_deg_2
   + p[1,0] * k_deg_1 + p[1,1] * k_reg ] = 0
 Equation_0,_1: [ p[0,0] * k_tx_2 - p[0,1] * k_tx_1 - p[0,1] * k_tx_2
   - p[0,1] * k_deg_2 + 2 p[0,2] * k_deg_2 + p[1,1] * k_deg_1
   + 2 p[1,2] * k_reg ] = 0
 Equation_0,_2: [ p[0,1] * k_tx_2 - p[0,2] * k_tx_1 - p[0,2] * k_tx_2
   - 2 p[0,2] * k_deg_2 + 3 p[0,3] * k_deg_2 + p[1,2] * k_deg_1
   + 3 p[1,3] * k_reg ] = 0
 Equation_0,_3: [ p[0,2] * k_tx_2 - p[0,3] * k_tx_1 - p[0,3] * k_tx_2
   - 3 p[0,3] * k_deg_2 + 4 p[0,4] * k_deg_2 + p[1,3] * k_deg_1
   + 4 p[1,4] * k_reg ] = 0
 Equation_0,_4: [ p[0,3] * k_tx_2 - p[0,4] * k_tx_1 - p[0,4] * k_tx_2
   - 4 p[0,4] * k_deg_2 + 5 p[0,5] * k_deg_2 + p[1,4] * k_deg_1
   + 5 p[1,5] * k_reg ] = 0
 Equation_1,_0: [ p[0,0] * k_tx_1 - p[1,0] * k_tx_1 - p[1,0] * k_tx_2
   - p[1,0] * k_deg_1 + p[1,1] * k_deg_2 + 2 p[2,0] * k_deg_1
   + 2 p[2,1] * k_reg ] = 0
 Equation_1,_1: [ p[0,1] * k_tx_1 + p[1,0] * k_tx_2 - p[1,1] * k_tx_1
   - p[1,1] * k_tx_2 - p[1,1] * k_deg_1 - p[1,1] * k_deg_2 - p[1,1] * k_reg
   + 2 p[1,2] * k_deg_2 + 2 p[2,1] * k_deg_1 + 4 p[2,2] * k_reg ] = 0
 Equation_1,_2: [ p[0,2] * k_tx_1 + p[1,1] * k_tx_2 - p[1,2] * k_tx_1
   - p[1,2] * k_tx_2 - p[1,2] * k_deg_1 - 2 p[1,2] * k_deg_2
   - 2 p[1,2] * k_reg + 3 p[1,3] * k_deg_2 + 2 p[2,2] * k_deg_1
   + 6 p[2,3] * k_reg ] = 0
 Equation_1,_3: [ p[0,3] * k_tx_1 + p[1,2] * k_tx_2 - p[1,3] * k_tx_1
   - p[1,3] * k_tx_2 - p[1,3] * k_deg_1 - 3 p[1,3] * k_deg_2
   - 3 p[1,3] * k_reg + 4 p[1,4] * k_deg_2 + 2 p[2,3] * k_deg_1
   + 8 p[2,4] * k_reg ] = 0
 Equation_1,_4: [ p[0,4] * k_tx_1 + p[1,3] * k_tx_2 - p[1,4] * k_tx_1
   - p[1,4] * k_tx_2 - p[1,4] * k_deg_1 - 4 p[1,4] * k_deg_2
   - 4 p[1,4] * k_reg + 5 p[1,5] * k_deg_2 + 2 p[2,4] * k_deg_1
   + 10 p[2,5] * k_reg ] = 0
 Equation_2,_0: [ p[1,0] * k_tx_1 - p[2,0] * k_tx_1 - p[2,0] * k_tx_2
   - 2 p[2,0] * k_deg_1 + p[2,1] * k_deg_2 + 3 p[3,0] * k_deg_1
   + 3 p[3,1] * k_reg ] = 0
 Equation_2,_1: [ p[1,1] * k_tx_1 + p[2,0] * k_tx_2 - p[2,1] * k_tx_1
   - p[2,1] * k_tx_2 - 2 p[2,1] * k_deg_1 - p[2,1] * k_deg_2
   - 2 p[2,1] * k_reg + 2 p[2,2] * k_deg_2 + 3 p[3,1] * k_deg_1
   + 6 p[3,2] * k_reg ] = 0
 Equation_2,_2: [ p[1,2] * k_tx_1 + p[2,1] * k_tx_2 - p[2,2] * k_tx_1
   - p[2,2] * k_tx_2 - 2 p[2,2] * k_deg_1 - 2 p[2,2] * k_deg_2
   - 4 p[2,2] * k_reg + 3 p[2,3] * k_deg_2 + 3 p[3,2] * k_deg_1
   + 9 p[3,3] * k_reg ] = 0
 Equation_2,_3: [ p[1,3] * k_tx_1 + p[2,2] * k_tx_2 - p[2,3] * k_tx_1
   - p[2,3] * k_tx_2 - 2 p[2,3] * k_deg_1 - 3 p[2,3] * k_deg_2
   - 6 p[2,3] * k_reg + 4 p[2,4] * k_deg_2 + 3 p[3,3] * k_deg_1
   + 12 p[3,4] * k_reg ] = 0
 Equation_2,_4: [ p[1,4] * k_tx_1 + p[2,3] * k_tx_2 - p[2,4] * k_tx_1
   - p[2,4] * k_tx_2 - 2 p[2,4] * k_deg_1 - 4 p[2,4] * k_deg_2
   - 8 p[2,4] * k_reg + 5 p[2,5] * k_deg_2 + 3 p[3,4] * k_deg_1
   + 15 p[3,5] * k_reg ] = 0
 Equation_3,_0: [ p[2,0] * k_tx_1 - p[3,0] * k_tx_1 - p[3,0] * k_tx_2
   - 3 p[3,0] * k_deg_1 + p[3,1] * k_deg_2 + 4 p[4,0] * k_deg_1
   + 4 p[4,1] * k_reg ] = 0
 Equation_3,_1: [ p[2,1] * k_tx_1 + p[3,0] * k_tx_2 - p[3,1] * k_tx_1
   - p[3,1] * k_tx_2 - 3 p[3,1] * k_deg_1 - p[3,1] * k_deg_2
   - 3 p[3,1] * k_reg + 2 p[3,2] * k_deg_2 + 4 p[4,1] * k_deg_1
   + 8 p[4,2] * k_reg ] = 0
 Equation_3,_2: [ p[2,2] * k_tx_1 + p[3,1] * k_tx_2 - p[3,2] * k_tx_1
   - p[3,2] * k_tx_2 - 3 p[3,2] * k_deg_1 - 2 p[3,2] * k_deg_2
   - 6 p[3,2] * k_reg + 3 p[3,3] * k_deg_2 + 4 p[4,2] * k_deg_1
   + 12 p[4,3] * k_reg ] = 0
 Equation_3,_3: [ p[2,3] * k_tx_1 + p[3,2] * k_tx_2 - p[3,3] * k_tx_1
   - p[3,3] * k_tx_2 - 3 p[3,3] * k_deg_1 - 3 p[3,3] * k_deg_2
   - 9 p[3,3] * k_reg + 4 p[3,4] * k_deg_2 + 4 p[4,3] * k_deg_1
   + 16 p[4,4] * k_reg ] = 0
 Equation_3,_4: [ p[2,4] * k_tx_1 + p[3,3] * k_tx_2 - p[3,4] * k_tx_1
   - p[3,4] * k_tx_2 - 3 p[3,4] * k_deg_1 - 4 p[3,4] * k_deg_2
   - 12 p[3,4] * k_reg + 5 p[3,5] * k_deg_2 + 4 p[4,4] * k_deg_1
   + 20 p[4,5] * k_reg ] = 0
 Equation_4,_0: [ p[3,0] * k_tx_1 - p[4,0] * k_tx_1 - p[4,0] * k_tx_2
   - 4 p[4,0] * k_deg_1 + p[4,1] * k_deg_2 + 5 p[5,0] * k_deg_1
   + 5 p[5,1] * k_reg ] = 0
 Equation_4,_1: [ p[3,1] * k_tx_1 + p[4,0] * k_tx_2 - p[4,1] * k_tx_1
   - p[4,1] * k_tx_2 - 4 p[4,1] * k_deg_1 - p[4,1] * k_deg_2
   - 4 p[4,1] * k_reg + 2 p[4,2] * k_deg_2 + 5 p[5,1] * k_deg_1
   + 10 p[5,2] * k_reg ] = 0
 Equation_4,_2: [ p[3,2] * k_tx_1 + p[4,1] * k_tx_2 - p[4,2] * k_tx_1
   - p[4,2] * k_tx_2 - 4 p[4,2] * k_deg_1 - 2 p[4,2] * k_deg_2
   - 8 p[4,2] * k_reg + 3 p[4,3] * k_deg_2 + 5 p[5,2] * k_deg_1
   + 15 p[5,3] * k_reg ] = 0
 Equation_4,_3: [ p[3,3] * k_tx_1 + p[4,2] * k_tx_2 - p[4,3] * k_tx_1
   - p[4,3] * k_tx_2 - 4 p[4,3] * k_deg_1 - 3 p[4,3] * k_deg_2
   - 12 p[4,3] * k_reg + 4 p[4,4] * k_deg_2 + 5 p[5,3] * k_deg_1
   + 20 p[5,4] * k_reg ] = 0
 Equation_4,_4: [ p[3,4] * k_tx_1 + p[4,3] * k_tx_2 - p[4,4] * k_tx_1
   - p[4,4] * k_tx_2 - 4 p[4,4] * k_deg_1 - 4 p[4,4] * k_deg_2
   - 16 p[4,4] * k_reg + 5 p[4,5] * k_deg_2 + 5 p[5,4] * k_deg_1
   + 25 p[5,5] * k_reg ] = 0
 Equation_5,_0: [ p[4,0] * k_tx_1 - p[5,0] * k_tx_1 - p[5,0] * k_tx_2
   - 5 p[5,0] * k_deg_1 + p[5,1] * k_deg_2 + 6 p[6,0] * k_deg_1
   + 6 p[6,1] * k_reg ] = 0
 Equation_5,_1: [ p[4,1] * k_tx_1 + p[5,0] * k_tx_2 - p[5,1] * k_tx_1
   - p[5,1] * k_tx_2 - 5 p[5,1] * k_deg_1 - p[5,1] * k_deg_2
   - 5 p[5,1] * k_reg + 2 p[5,2] * k_deg_2 + 6 p[6,1] * k_deg_1
   + 12 p[6,2] * k_reg ] = 0
 Equation_5,_2: [ p[4,2] * k_tx_1 + p[5,1] * k_tx_2 - p[5,2] * k_tx_1
   - p[5,2] * k_tx_2 - 5 p[5,2] * k_deg_1 - 2 p[5,2] * k_deg_2
   - 10 p[5,2] * k_reg + 3 p[5,3] * k_deg_2 + 6 p[6,2] * k_deg_1
   + 18 p[6,3] * k_reg ] = 0
 Equation_5,_3: [ p[4,3] * k_tx_1 + p[5,2] * k_tx_2 - p[5,3] * k_tx_1
   - p[5,3] * k_tx_2 - 5 p[5,3] * k_deg_1 - 3 p[5,3] * k_deg_2
   - 15 p[5,3] * k_reg + 4 p[5,4] * k_deg_2 + 6 p[6,3] * k_deg_1
   + 24 p[6,4] * k_reg ] = 0
 Equation_5,_4: [ p[4,4] * k_tx_1 + p[5,3] * k_tx_2 - p[5,4] * k_tx_1
   - p[5,4] * k_tx_2 - 5 p[5,4] * k_deg_1 - 4 p[5,4] * k_deg_2
   - 20 p[5,4] * k_reg + 5 p[5,5] * k_deg_2 + 6 p[6,4] * k_deg_1
   + 30 p[6,5] * k_reg ] = 0
 Equation_6,_0: [ p[5,0] * k_tx_1 - p[6,0] * k_tx_1 - p[6,0] * k_tx_2
   - 6 p[6,0] * k_deg_1 + p[6,1] * k_deg_2 + 7 p[7,0] * k_deg_1
   + 7 p[7,1] * k_reg ] = 0
 Equation_6,_1: [ p[5,1] * k_tx_1 + p[6,0] * k_tx_2 - p[6,1] * k_tx_1
   - p[6,1] * k_tx_2 - 6 p[6,1] * k_deg_1 - p[6,1] * k_deg_2
   - 6 p[6,1] * k_reg + 2 p[6,2] * k_deg_2 + 7 p[7,1] * k_deg_1
   + 14 p[7,2] * k_reg ] = 0
 Equation_6,_2: [ p[5,2] * k_tx_1 + p[6,1] * k_tx_2 - p[6,2] * k_tx_1
   - p[6,2] * k_tx_2 - 6 p[6,2] * k_deg_1 - 2 p[6,2] * k_deg_2
   - 12 p[6,2] * k_reg + 3 p[6,3] * k_deg_2 + 7 p[7,2] * k_deg_1
   + 21 p[7,3] * k_reg ] = 0
 Equation_6,_3: [ p[5,3] * k_tx_1 + p[6,2] * k_tx_2 - p[6,3] * k_tx_1
   - p[6,3] * k_tx_2 - 6 p[6,3] * k_deg_1 - 3 p[6,3] * k_deg_2
   - 18 p[6,3] * k_reg + 4 p[6,4] * k_deg_2 + 7 p[7,3] * k_deg_1
   + 28 p[7,4] * k_reg ] = 0
 Equation_6,_4: [ p[5,4] * k_tx_1 + p[6,3] * k_tx_2 - p[6,4] * k_tx_1
   - p[6,4] * k_tx_2 - 6 p[6,4] * k_deg_1 - 4 p[6,4] * k_deg_2
   - 24 p[6,4] * k_reg + 5 p[6,5] * k_deg_2 + 7 p[7,4] * k_deg_1
   + 35 p[7,5] * k_reg ] = 0
 Equation_7,_0: [ p[6,0] * k_tx_1 - p[7,0] * k_tx_1 - p[7,0] * k_tx_2
   - 7 p[7,0] * k_deg_1 + p[7,1] * k_deg_2 + 8 p[8,0] * k_deg_1
   + 8 p[8,1] * k_reg ] = 0
 Equation_7,_1: [ p[6,1] * k_tx_1 + p[7,0] * k_tx_2 - p[7,1] * k_tx_1
   - p[7,1] * k_tx_2 - 7 p[7,1] * k_deg_1 - p[7,1] * k_deg_2
   - 7 p[7,1] * k_reg + 2 p[7,2] * k_deg_2 + 8 p[8,1] * k_deg_1
   + 16 p[8,2] * k_reg ] = 0
 Equation_7,_2: [ p[6,2] * k_tx_1 + p[7,1] * k_tx_2 - p[7,2] * k_tx_1
   - p[7,2] * k_tx_2 - 7 p[7,2] * k_deg_1 - 2 p[7,2] * k_deg_2
   - 14 p[7,2] * k_reg + 3 p[7,3] * k_deg_2 + 8 p[8,2] * k_deg_1
   + 24 p[8,3] * k_reg ] = 0
 Equation_7,_3: [ p[6,3] * k_tx_1 + p[7,2] * k_tx_2 - p[7,3] * k_tx_1
   - p[7,3] * k_tx_2 - 7 p[7,3] * k_deg_1 - 3 p[7,3] * k_deg_2
   - 21 p[7,3] * k_reg + 4 p[7,4] * k_deg_2 + 8 p[8,3] * k_deg_1
   + 32 p[8,4] * k_reg ] = 0
 Equation_7,_4: [ p[6,4] * k_tx_1 + p[7,3] * k_tx_2 - p[7,4] * k_tx_1
   - p[7,4] * k_tx_2 - 7 p[7,4] * k_deg_1 - 4 p[7,4] * k_deg_2
   - 28 p[7,4] * k_reg + 5 p[7,5] * k_deg_2 + 8 p[8,4] * k_deg_1
   + 40 p[8,5] * k_reg ] = 0
 Equation_8,_0: [ p[7,0] * k_tx_1 - p[8,0] * k_tx_1 - p[8,0] * k_tx_2
   - 8 p[8,0] * k_deg_1 + p[8,1] * k_deg_2 + 9 p[9,0] * k_deg_1
   + 9 p[9,1] * k_reg ] = 0
 Equation_8,_1: [ p[7,1] * k_tx_1 + p[8,0] * k_tx_2 - p[8,1] * k_tx_1
   - p[8,1] * k_tx_2 - 8 p[8,1] * k_deg_1 - p[8,1] * k_deg_2
   - 8 p[8,1] * k_reg + 2 p[8,2] * k_deg_2 + 9 p[9,1] * k_deg_1
   + 18 p[9,2] * k_reg ] = 0
 Equation_8,_2: [ p[7,2] * k_tx_1 + p[8,1] * k_tx_2 - p[8,2] * k_tx_1
   - p[8,2] * k_tx_2 - 8 p[8,2] * k_deg_1 - 2 p[8,2] * k_deg_2
   - 16 p[8,2] * k_reg + 3 p[8,3] * k_deg_2 + 9 p[9,2] * k_deg_1
   + 27 p[9,3] * k_reg ] = 0
 Equation_8,_3: [ p[7,3] * k_tx_1 + p[8,2] * k_tx_2 - p[8,3] * k_tx_1
   - p[8,3] * k_tx_2 - 8 p[8,3] * k_deg_1 - 3 p[8,3] * k_deg_2
   - 24 p[8,3] * k_reg + 4 p[8,4] * k_deg_2 + 9 p[9,3] * k_deg_1
   + 36 p[9,4] * k_reg ] = 0
 Equation_8,_4: [ p[7,4] * k_tx_1 + p[8,3] * k_tx_2 - p[8,4] * k_tx_1
   - p[8,4] * k_tx_2 - 8 p[8,4] * k_deg_1 - 4 p[8,4] * k_deg_2
   - 32 p[8,4] * k_reg + 5 p[8,5] * k_deg_2 + 9 p[9,4] * k_deg_1
   + 45 p[9,5] * k_reg ] = 0
Bounds
 p[0,0] <= 1
 p[0,1] <= 1
 p[0,2] <= 1
 p[0,3] <= 1
 p[0,4] <= 1
 p[0,5] <= 1
 p[1,0] <= 1
 p[1,1] <= 1
 p[1,2] <= 1
 p[1,3] <= 1
 p[1,4] <= 1
 p[1,5] <= 1
 p[2,0] <= 1
 p[2,1] <= 1
 p[2,2] <= 1
 p[2,3] <= 1
 p[2,4] <= 1
 p[2,5] <= 1
 p[3,0] <= 1
 p[3,1] <= 1
 p[3,2] <= 1
 p[3,3] <= 1
 p[3,4] <= 1
 p[3,5] <= 1
 p[4,0] <= 1
 p[4,1] <= 1
 p[4,2] <= 1
 p[4,3] <= 1
 p[4,4] <= 1
 p[4,5] <= 1
 p[5,0] <= 1
 p[5,1] <= 1
 p[5,2] <= 1
 p[5,3] <= 1
 p[5,4] <= 1
 p[5,5] <= 1
 p[6,0] <= 1
 p[6,1] <= 1
 p[6,2] <= 1
 p[6,3] <= 1
 p[6,4] <= 1
 p[6,5] <= 1
 p[7,0] <= 1
 p[7,1] <= 1
 p[7,2] <= 1
 p[7,3] <= 1
 p[7,4] <= 1
 p[7,5] <= 1
 p[8,0] <= 1
 p[8,1] <= 1
 p[8,2] <= 1
 p[8,3] <= 1
 p[8,4] <= 1
 p[8,5] <= 1
 p[9,0] <= 1
 p[9,1] <= 1
 p[9,2] <= 1
 p[9,3] <= 1
 p[9,4] <= 1
 p[9,5] <= 1
 p1[0] <= 1
 p1[1] <= 1
 p1[2] <= 1
 p1[3] <= 1
 p1[4] <= 1
 p1[5] <= 1
 p1[6] <= 1
 p1[7] <= 1
 p1[8] <= 1
 p1[9] <= 1
 p2[0] <= 1
 p2[1] <= 1
 p2[2] <= 1
 p2[3] <= 1
 p2[4] <= 1
 p2[5] <= 1
 k_tx_1 <= 10
 k_tx_2 <= 10
 k_deg_1 <= 10
 k_deg_2 <= 10
 k_reg <= 10
End
